c clasp version 2.1.4
c Reading from ...arks/15_Nodes/PBencd_OceanDataCost.opb
c Solving...
o 18453
o 17470
o 16609
o 15893
o 15233
o 13389
o 12918
o 12202
o 11362
o 11194
o 10963
o 10877
o 10826
o 10428
o 9917
o 9826
o 9758
o 9648
o 9376
o 9150
o 9038
o 8942
o 8689
o 8653
o 8643
o 8629
o 8511
o 8391
o 8197
o 8087
o 7982
o 7980
o 7235
o 7169
o 6397
o 6336
o 6313
o 6302
o 6298
o 6129
o 6106
o 6045
o 5866
o 5707
o 5680
o 5341
o 5125
o 4866
o 4696
o 4674
o 4557
o 4529
o 4396
o 4368
o 4226
o 4205
o 4190
c Answer: 57
v -x1 -x2 -x3 -x4 -x5 -x6 -x7 x8 -x9 -x10 -x11 -x12 -x13 -x14 -x15 -x16 -x17
v -x18 -x19 -x20 -x21 -x22 -x23 -x24 -x25 -x26 -x27 x28 -x29 -x30 -x31 x32
v -x33 -x34 -x35 -x36 -x37 -x38 -x39 -x40 -x41 -x42 -x43 -x44 -x45 -x46 -x47
v -x48 -x49 -x50 -x51 x52 -x53 -x54 -x55 -x56 -x57 -x58 -x59 -x60 -x61 -x62
v -x63 -x64 -x65 -x66 -x67 x68 -x69 -x70 -x71 -x72 -x73 -x74 -x75 -x76 -x77
v -x78 -x79 -x80 -x81 -x82 x83 -x84 -x85 -x86 -x87 -x88 -x89 x90 -x91 -x92
v -x93 -x94 -x95 -x96 -x97 -x98 -x99 -x100 -x101 x102 -x103 -x104 -x105 -x106
v -x107 -x108 -x109 -x110 -x111 -x112 -x113 -x114 -x115 -x116 -x117 -x118
v -x119 -x120 -x121 -x122 x123 -x124 -x125 -x126 -x127 -x128 -x129 -x130
v -x131 -x132 -x133 x134 -x135 -x136 -x137 -x138 -x139 -x140 x141 -x142 -x143
v -x144 -x145 -x146 -x147 -x148 -x149 -x150 -x151 -x152 -x153 -x154 -x155
v x156 -x157 -x158 -x159 -x160 -x161 -x162 -x163 -x164 -x165 -x166 -x167
v -x168 -x169 -x170 -x171 -x172 -x173 -x174 x175 -x176 -x177 -x178 -x179
v -x180 -x181 -x182 -x183 -x184 -x185 -x186 -x187 -x188 -x189 -x190 -x191
v x192 -x193 -x194 -x195 -x196 -x197 -x198 x199 -x200 -x201 -x202 -x203 -x204
v -x205 -x206 -x207 -x208 -x209 -x210 x211 x212 -x213 x214 -x215 x216 x217
v x218 x219 -x220 x221 -x222 -x223 -x224 -x225 x226 -x227 -x228 x229 -x230
v -x231 x232 -x233 -x234 -x235 x236 -x237 x238 -x239 -x240 -x241 -x242 x243
v -x244 -x245 -x246 -x247 -x248 x249 -x250 -x251 -x252 x253 x254 -x255 x256
v x257 x258 -x259 -x260 -x261 x262 -x263 x264 -x265 -x266 x267 x268 x269
v -x270 x271 x272 -x273 -x274 -x275 -x276 x277 x278 -x279 -x280 -x281 -x282
v -x283 -x284 x285 -x286 x287 -x288 -x289 x290 -x291 -x292 x293 -x294 -x295
v -x296 -x297 x298 x299 -x300 x301 -x302 x303 -x304 -x305 -x306 -x307 -x308
v x309 -x310 x311 x312 x313 -x314 -x315 x316 x317 -x318 x319 -x320 -x321
v -x322 -x323 -x324 -x325 -x326 x327 -x328 x329 -x330 x331 -x332 x333 x334
v -x335 x336 -x337 -x338 -x339 x340 -x341 x342 x343 -x344 -x345 x346 -x347
v -x348 x349 -x350 x351 x352 -x353 -x354 x355 -x356 x357 -x358 x359 -x360
v -x361 -x362 -x363 -x364 -x365 -x366 -x367 -x368 x369 -x370 x371 -x372 -x373
v -x374 -x375 -x376 -x377 x378 -x379 -x380 x381 x382 -x383 -x384 -x385 x386
v x387 x388 -x389 -x390 x391 x392 -x393 x394 -x395 -x396 x397 x398 -x399
v -x400 x401 -x402 -x403 x404 -x405 x406 -x407 x408 x409 -x410 -x411 x412
v -x413 -x414 -x415 x416 -x417 x418 -x419 -x420 -x421 -x422 -x423 -x424 -x425
v -x426 -x427 -x428 x429 x430 -x431 -x432 x433 x434 x435 -x436 x437 x438
v -x439 x440 -x441 -x442 -x443 -x444 -x445 -x446 x447 -x448 -x449 x450 x451
v -x452 -x453 -x454 x455 x456 -x457 x458 -x459 x460 x461 -x462 -x463 x464
v x465 -x466 -x467 x468 -x469 x470 x471 x472 x473 -x474 x475 x476 x477 -x478
v x479 x480 -x481 -x482 -x483 -x484 x485 x486 x487 -x488 -x489 x490 x491
v -x492 x493 x494 x495 -x496 -x497 -x498 -x499 x500 -x501 -x502 x503 -x504
v x505 -x506 x507 x508 -x509 -x510 x511 x512 x513 -x514 -x515 -x516 x517
v -x518 x519 -x520 x521 -x522 -x523 x524 -x525 x526 -x527 x528 x529 -x530
v x531 -x532 -x533 -x534 x535 -x536 -x537 x538 x539 -x540 -x541 -x542 -x543
v -x544 -x545 x546 x547 -x548 -x549 x550 -x551 -x552 -x553 x554 -x555 x556
v x557 -x558 x559 -x560 x561 -x562 x563 -x564 x565 x566 x567 x568 -x569 x570
v x571 x572 -x573 x574 x575 x576 -x577 x578 x579 -x580 x581 -x582 x583 -x584
v x585 x586 -x587 -x588 -x589 x590 -x591 -x592 -x593 -x594 x595 -x596 -x597
v x598 -x599 x600 -x601 -x602 -x603 x604 x605 x606 x607 -x608 -x609 x610
v -x611 x612 x613 -x614 x615 -x616 x617 -x618 x619 x620 -x621 -x622 -x623
v -x624 -x625 -x626 x627 -x628 -x629 x630 -x631 -x632 x633 x634 x635 -x636
v -x637 x638 -x639 x640 -x641 -x642 -x643 x644 x645 -x646 x647 -x648 x649
v -x650 -x651 x652 -x653 -x654 x655 x656 x657 -x658 x659 -x660 x661 -x662
v x663 x664 -x665 x666 -x667 -x668 -x669 x670 x671 -x672 x673 -x674 x675
v -x676 -x677 -x678 -x679 x680 x681 x682 -x683 -x684 x685 x686 x687 x688
v -x689 x690 -x691 -x692 x693 x694 -x695 -x696 -x697 -x698 -x699 -x700 x701
v -x702 -x703 x704 x705 x706 -x707 x708 -x709 x710 x711 -x712 -x713 x714
v x715 x716 x717 -x718 x719 -x720 x721 x722 -x723 -x724 x725 -x726 -x727
v x728 x729 -x730 -x731 -x732 -x733 -x734 -x735 -x736 x737 -x738 -x739 x740
v -x741 x742 x743 -x744 x745 x746 -x747 -x748 -x749 x750 -x751 -x752 x753
v -x754 x755 -x756 -x757 -x758 x759 x760 x761 -x762 x763 x764 -x765 -x766
v -x767 -x768 -x769 x770 -x771 x772 -x773 x774 x775 x776 -x777 -x778 -x779
v x780 x781 -x782 x783 -x784 x785 x786 x787 x788 -x789 -x790 -x791 -x792
v -x793 -x794 -x795 -x796 -x797 -x798 x799 -x800 x801 x802 -x803 x804 -x805
v -x806 x807 -x808 x809 -x810 -x811 x812 -x813 -x814 x815 x816 -x817 x818
v x819 -x820 -x821 -x822 -x823 -x824 x825 -x826 -x827 x828 -x829 x830 x831
v -x832 -x833 x834 -x835 -x836 -x837 x838 x839 -x840 -x841 x842 x843 -x844
v x845 x846 -x847 x848 x849 -x850 x851 -x852 -x853 -x854 x855 x856 x857 -x858
v -x859 -x860 x861 x862 -x863 x864 -x865 -x866 -x867 x868 -x869 -x870 x871
v x872 x873 -x874 -x875 -x876 x877 x878 -x879 -x880 -x881 x882 -x883 x884
v -x885 x886 -x887 -x888 x889 -x890 -x891 -x892 x893 x894 -x895 x896 -x897
v -x898 -x899 -x900 x901 -x902 x903 -x904 -x905 -x906 -x907 -x908 x909 -x910
v -x911 x912 -x913 -x914 x915 -x916 x917 -x918 -x919 x920 -x921 x922 x923
v -x924 x925 -x926 -x927 -x928 x929 -x930 -x931 -x932 -x933 -x934 x935 x936
v -x937 -x938 x939 -x940 -x941 -x942 x943 x944 -x945 x946 x947 -x948 x949
v -x950 -x951 -x952 -x953 -x954 -x955 x956 x957 -x958 -x959 x960 x961 -x962
v -x963 -x964 x965 x966 -x967 x968 -x969 x970 -x971 x972 -x973 x974 -x975
v x976 -x977 x978 x979 -x980 x981 x982 x983 -x984 x985 -x986 -x987 -x988
v -x989 -x990 x991 x992 -x993 -x994 x995 x996 -x997 x998 -x999 -x1000 x1001
v -x1002 x1003 x1004 -x1005 -x1006 x1007 x1008 -x1009 -x1010 x1011 -x1012
v -x1013 x1014 -x1015 -x1016 -x1017 -x1018 x1019 -x1020 -x1021 -x1022 x1023
v x1024 -x1025 -x1026 -x1027 -x1028 -x1029 x1030 x1031 x1032 -x1033 x1034
v -x1035 -x1036 x1037 -x1038 -x1039 x1040 x1041 x1042 x1043 -x1044 -x1045
v -x1046 x1047 -x1048 x1049 -x1050 -x1051 -x1052 x1053 -x1054 x1055 x1056
v x1057 -x1058 x1059 -x1060 -x1061 -x1062 -x1063 -x1064 -x1065 x1066 -x1067
v -x1068 -x1069 -x1070 x1071 -x1072 -x1073 x1074 -x1075 -x1076 x1077 -x1078
v -x1079 -x1080 x1081 -x1082 x1083 -x1084 -x1085 -x1086 -x1087 x1088 -x1089
v -x1090 -x1091 -x1092 -x1093 x1094 -x1095 -x1096 -x1097 x1098 x1099 -x1100
v x1101 x1102 x1103 -x1104 -x1105 -x1106 x1107 -x1108 x1109 -x1110 x1111
v x1112 -x1113 -x1114 -x1115 -x1116 x1117 x1118 -x1119 -x1120 -x1121 -x1122
v -x1123 -x1124 x1125 -x1126 x1127 x1128 -x1129 x1130 -x1131 x1132 -x1133
v x1134 x1135 -x1136 -x1137 x1138 x1139 -x1140 -x1141 -x1142 x1143 -x1144
v x1145 x1146 -x1147 x1148 x1149 -x1150 -x1151 -x1152 -x1153 -x1154 x1155
v -x1156 -x1157 -x1158 -x1159 -x1160 x1161 x1162 -x1163 -x1164 x1165 x1166
v x1167 x1168 -x1169 x1170 -x1171 x1172 -x1173 -x1174 x1175 x1176 -x1177
v x1178 -x1179 x1180 x1181 -x1182 -x1183 x1184 x1185 x1186 -x1187 -x1188
v -x1189 x1190 x1191 x1192 -x1193 x1194 x1195 x1196 x1197 -x1198 -x1199 x1200
v x1201 x1202 x1203 -x1204 x1205 x1206 -x1207 -x1208 x1209 -x1210 x1211 -x1212
v -x1213 -x1214 x1215 -x1216 x1217 -x1218 x1219 -x1220 x1221 -x1222 x1223
v x1224 -x1225 -x1226 -x1227 x1228 x1229 -x1230 -x1231 -x1232 -x1233 -x1234
v x1235 -x1236 -x1237 x1238 -x1239 x1240 -x1241 -x1242 -x1243 -x1244 -x1245
v -x1246 x1247 -x1248 -x1249 x1250 -x1251 x1252 x1253 -x1254 x1255 x1256
v x1257 -x1258 x1259 -x1260 -x1261 -x1262 -x1263 x1264 x1265
s OPTIMUM FOUND

c Models        : 1     
c   Enumerated  : 57
c   Optimum     : yes
c Optimization  : 4190
c Time          : 12.329s (Solving: 12.32s 1st Model: 2.22s Unsat: 1.12s)
c CPU Time      : 3.610s
c Choices       : 221913
c Conflicts     : 124356
c Restarts      : 81     (Average: 1535.25 Last: 10210)

c Variables     : 1265   (Eliminated:    0 Frozen: 1265)
c Constraints   : 452    (Binary:  0.0% Ternary:  0.0% Other:100.0%)
c Lemmas        : 124355 (Binary:  0.1% Ternary:  0.3% Other: 99.6%)
c   Conflict    : 124355 (Average Length: 16.0) 
c   Loop        : 0      (Average Length: 0.0) 
c   Other       : 0      (Average Length: 0.0)
c   Deleted     : 68938 

c Backtracks            : 1     
c Backjumps             : 124355 (Bounded: 0)
c Skippable Levels      : 216589 (Skipped: 216589 Rate: 100.0%)
c Max Jump Length       : 128    (Executed: 128)
c Max Bound Length      : 0     
c Average Jump Length   : 1.7    (Executed: 1.7)
c Average Bound Length  : 0.0   
c Average Model Length  : 35.5  
